80 9450612
24 62 77 41 29 10 34 68 19 74 75 14 15 54 42 43 5 35 73 48 44 21 49 27 8 37 22 23 67 4 58 20 1 40 17 59 46 70 64 60 61 71 13 65 26 78 56 63 11 6 25 18 55 36 12 39 72 2 16 47 9 31 32 79 38 57 76 51 80 52 28 50 33 3 66 53 30 69 45 7 
